<number of tasks>
20

<cycle time>
1000

<order strength>
0,505


<task times>
1 34
2 470
3 551
4 185
5 299
6 205
7 207
8 220
9 503
10 91
11 130
12 115
13 143
14 113
15 239
16 511
17 76
18 130
19 349
20 470

<precedence relations>
1,8
2,8
4,5
4,6
4,7
5,8
6,8
7,9
7,10
7,11
8,12
8,13
8,14
8,15
9,17
9,18
10,16
10,19
12,17
12,18
13,16
14,16
15,16
15,19
16,18
16,20
17,19

<end>
